(set-info :smt-lib-version 2.6)
(set-logic QF_LRA)
(set-info :source |
TLP-GP automated DTP to SMT-LIB encoding for planning
by F.Maris and P.Regnier, IRIT - Universite Paul Sabatier, Toulouse

|)
(set-info :category "industrial")
(set-info :status sat)
(declare-fun St_spy_variable () Real)
(declare-fun t_Init_0 () Real)
(declare-fun t_Goal_19 () Real)
(declare-fun t_C_N5_15 () Real)
(declare-fun t_B_N5_14 () Real)
(declare-fun t_C_N4_12 () Real)
(declare-fun t_B_N4_11 () Real)
(declare-fun t_C_N3_9 () Real)
(declare-fun t_B_N3_8 () Real)
(declare-fun t_C_N2_6 () Real)
(declare-fun t_B_N2_5 () Real)
(declare-fun t_C_N1_3 () Real)
(declare-fun t_B_N1_2 () Real)
(declare-fun t_A_N1_1 () Real)
(declare-fun t_A_N2_4 () Real)
(declare-fun t_A_N3_7 () Real)
(declare-fun t_A_N4_10 () Real)
(declare-fun t_A_N5_13 () Real)
(declare-fun t_A_N6_16 () Real)
(declare-fun t_B_N6_17 () Real)
(declare-fun t_C_N6_18 () Real)
(assert (let ((?v_14 (- t_Goal_19 t_C_N5_15)) (?v_13 (- t_Goal_19 t_B_N5_14)) (?v_11 (- t_Goal_19 t_C_N4_12)) (?v_10 (- t_Goal_19 t_B_N4_11)) (?v_8 (- t_Goal_19 t_C_N3_9)) (?v_7 (- t_Goal_19 t_B_N3_8)) (?v_5 (- t_Goal_19 t_C_N2_6)) (?v_4 (- t_Goal_19 t_B_N2_5)) (?v_2 (- t_Goal_19 t_C_N1_3)) (?v_1 (- t_Goal_19 t_B_N1_2)) (?v_0 (- t_Goal_19 t_A_N1_1)) (?v_3 (- t_Goal_19 t_A_N2_4)) (?v_6 (- t_Goal_19 t_A_N3_7)) (?v_9 (- t_Goal_19 t_A_N4_10)) (?v_12 (- t_Goal_19 t_A_N5_13)) (?v_15 (- t_Goal_19 t_A_N6_16)) (?v_16 (- t_Goal_19 t_B_N6_17)) (?v_41 (- t_Goal_19 t_C_N6_18)) (?v_36 (- t_B_N1_2 t_A_N1_1))) (let ((?v_35 (< ?v_36 5)) (?v_34 (- t_C_N1_3 t_B_N1_2))) (let ((?v_33 (< ?v_34 4)) (?v_32 (- t_B_N2_5 t_A_N2_4))) (let ((?v_31 (< ?v_32 5)) (?v_30 (- t_C_N2_6 t_B_N2_5))) (let ((?v_29 (< ?v_30 4)) (?v_28 (- t_B_N3_8 t_A_N3_7))) (let ((?v_27 (< ?v_28 5)) (?v_26 (- t_C_N3_9 t_B_N3_8))) (let ((?v_25 (< ?v_26 4)) (?v_24 (- t_B_N4_11 t_A_N4_10))) (let ((?v_23 (< ?v_24 5)) (?v_22 (- t_C_N4_12 t_B_N4_11))) (let ((?v_21 (< ?v_22 4)) (?v_20 (- t_B_N5_14 t_A_N5_13))) (let ((?v_19 (< ?v_20 5)) (?v_18 (- t_C_N5_15 t_B_N5_14))) (let ((?v_17 (< ?v_18 4)) (?v_38 (- t_B_N6_17 t_A_N6_16))) (let ((?v_37 (< ?v_38 5)) (?v_40 (- t_C_N6_18 t_B_N6_17))) (let ((?v_39 (< ?v_40 4)) (?v_65 (- t_A_N6_16 t_C_N5_15)) (?v_60 (- t_A_N5_13 t_C_N4_12)) (?v_55 (- t_A_N4_10 t_C_N3_9)) (?v_50 (- t_A_N3_7 t_C_N2_6)) (?v_45 (- t_A_N2_4 t_C_N1_3)) (?v_42 (- t_A_N2_4 t_A_N1_1)) (?v_47 (- t_A_N3_7 t_A_N2_4)) (?v_52 (- t_A_N4_10 t_A_N3_7)) (?v_57 (- t_A_N5_13 t_A_N4_10)) (?v_62 (- t_A_N6_16 t_A_N5_13))) (let ((?v_83 (< ?v_42 5)) (?v_43 (> ?v_36 1))) (let ((?v_82 (or ?v_83 ?v_43)) (?v_44 (< ?v_0 6)) (?v_46 (< (- t_C_N1_3 t_A_N1_1) 4))) (let ((?v_81 (or (< ?v_45 1) ?v_46)) (?v_80 (< ?v_47 5)) (?v_48 (> ?v_32 1))) (let ((?v_79 (or ?v_80 ?v_48)) (?v_49 (< ?v_3 6)) (?v_51 (< (- t_C_N2_6 t_A_N2_4) 4))) (let ((?v_78 (or (< ?v_50 1) ?v_51)) (?v_77 (< ?v_52 5)) (?v_53 (> ?v_28 1))) (let ((?v_76 (or ?v_77 ?v_53)) (?v_54 (< ?v_6 6)) (?v_56 (< (- t_C_N3_9 t_A_N3_7) 4))) (let ((?v_75 (or (< ?v_55 1) ?v_56)) (?v_74 (< ?v_57 5)) (?v_58 (> ?v_24 1))) (let ((?v_73 (or ?v_74 ?v_58)) (?v_59 (< ?v_9 6)) (?v_61 (< (- t_C_N4_12 t_A_N4_10) 4))) (let ((?v_72 (or (< ?v_60 1) ?v_61)) (?v_71 (< ?v_62 5)) (?v_63 (> ?v_20 1))) (let ((?v_70 (or ?v_71 ?v_63)) (?v_64 (< ?v_12 6)) (?v_66 (< (- t_C_N5_15 t_A_N5_13) 4))) (let ((?v_69 (or (< ?v_65 1) ?v_66)) (?v_67 (> ?v_38 1))) (let ((?v_84 (or (< ?v_38 1) ?v_67)) (?v_68 (< ?v_15 6)) (?v_86 (- t_C_N6_18 t_A_N6_16))) (let ((?v_85 (< ?v_86 4))) (and (= St_spy_variable (+ 1 t_Init_0)) (>= t_Goal_19 t_Init_0) (>= (- t_C_N5_15 t_Init_0) 0) (>= ?v_14 1) (>= (- t_B_N5_14 t_Init_0) 0) (>= ?v_13 4) (>= (- t_C_N4_12 t_Init_0) 0) (>= ?v_11 1) (>= (- t_B_N4_11 t_Init_0) 0) (>= ?v_10 4) (>= (- t_C_N3_9 t_Init_0) 0) (>= ?v_8 1) (>= (- t_B_N3_8 t_Init_0) 0) (>= ?v_7 4) (>= (- t_C_N2_6 t_Init_0) 0) (>= ?v_5 1) (>= (- t_B_N2_5 t_Init_0) 0) (>= ?v_4 4) (>= (- t_C_N1_3 t_Init_0) 0) (>= ?v_2 1) (>= (- t_B_N1_2 t_Init_0) 0) (>= ?v_1 4) (>= (- t_A_N1_1 t_Init_0) 0) (>= ?v_0 5) (>= (- t_A_N2_4 t_Init_0) 0) (>= ?v_3 5) (>= (- t_A_N3_7 t_Init_0) 0) (>= ?v_6 5) (>= (- t_A_N4_10 t_Init_0) 0) (>= ?v_9 5) (>= (- t_A_N5_13 t_Init_0) 0) (>= ?v_12 5) (>= (- t_A_N6_16 t_Init_0) 0) (>= ?v_15 5) (>= (- t_B_N6_17 t_Init_0) 0) (>= ?v_16 4) (>= (- t_C_N6_18 t_Init_0) 0) (>= ?v_41 1) ?v_35 (>= ?v_0 6) ?v_33 (>= ?v_1 5) (>= ?v_2 2) ?v_31 (>= ?v_3 6) ?v_29 (>= ?v_4 5) (>= ?v_5 2) ?v_27 (>= ?v_6 6) ?v_25 (>= ?v_7 5) (>= ?v_8 2) ?v_23 (>= ?v_9 6) ?v_21 (>= ?v_10 5) (>= ?v_11 2) ?v_19 (>= ?v_12 6) ?v_17 (>= ?v_13 5) (>= ?v_14 2) ?v_37 (>= ?v_15 6) ?v_39 (>= ?v_16 5) ?v_17 ?v_17 (>= ?v_18 0) (>= ?v_65 1) ?v_19 ?v_19 (>= ?v_20 0) (>= (- t_A_N6_16 t_B_N5_14) 4) ?v_21 ?v_21 (>= ?v_22 0) (>= ?v_60 1) ?v_23 ?v_23 (>= ?v_24 0) (>= (- t_A_N5_13 t_B_N4_11) 4) ?v_25 ?v_25 (>= ?v_26 0) (>= ?v_55 1) ?v_27 ?v_27 (>= ?v_28 0) (>= (- t_A_N4_10 t_B_N3_8) 4) ?v_29 ?v_29 (>= ?v_30 0) (>= ?v_50 1) ?v_31 ?v_31 (>= ?v_32 0) (>= (- t_A_N3_7 t_B_N2_5) 4) ?v_33 ?v_33 (>= ?v_34 0) (>= ?v_45 1) ?v_35 ?v_35 (>= ?v_36 0) (>= (- t_A_N2_4 t_B_N1_2) 4) (>= ?v_42 5) (>= ?v_47 5) (>= ?v_52 5) (>= ?v_57 5) (>= ?v_62 5) ?v_37 (>= ?v_38 0) ?v_39 (>= ?v_40 0) (>= ?v_41 2) ?v_82 (or ?v_44 ?v_43) (or ?v_46 (< ?v_2 2)) (or ?v_43 ?v_44) ?v_81 ?v_79 (or ?v_49 ?v_48) (or ?v_51 (< ?v_5 2)) (or ?v_48 ?v_49) ?v_78 ?v_76 (or ?v_54 ?v_53) (or ?v_56 (< ?v_8 2)) (or ?v_53 ?v_54) ?v_75 ?v_73 (or ?v_59 ?v_58) (or ?v_61 (< ?v_11 2)) (or ?v_58 ?v_59) ?v_72 ?v_70 (or ?v_64 ?v_63) (or ?v_66 (< ?v_14 2)) (or ?v_63 ?v_64) ?v_69 ?v_84 (or ?v_68 ?v_67) (or ?v_85 (< ?v_41 2)) (or ?v_67 ?v_68) (or ?v_63 (< ?v_20 1)) ?v_69 ?v_70 (or ?v_63 ?v_71) (or ?v_58 (< ?v_24 1)) ?v_72 ?v_73 (or ?v_58 ?v_74) (or ?v_53 (< ?v_28 1)) ?v_75 ?v_76 (or ?v_53 ?v_77) (or ?v_48 (< ?v_32 1)) ?v_78 ?v_79 (or ?v_48 ?v_80) (or ?v_43 (< ?v_36 1)) ?v_81 ?v_82 (or ?v_43 ?v_83) ?v_84 (or ?v_85 (> ?v_86 4))))))))))))))))))))))))))))))
(check-sat)
(exit)
